peakDumbCharging = 25900; 
Machine = anon_enum(16); 
machineSpeed = [3700,3700,3700,3700,3700,3700,3700,3700,3700,3700,3700,3700,3700,3700,3700,3700]; 
machineLoad = [3700,3700,3700,3700,3700,3700,3700,3700,3700,3700,3700,3700,3700,3700,3700,3700]; 
Car = anon_enum(29); 
demandCar = [13880,27040,2440,6560,480,11960,1960,5720,9520,11040,17440,15640,7040,3640,12440,11120,10600,4880,12840,26240,5320,7160,18880,10600,2320,6760,12040,7880,34560]; 
arrivalCar = [72,72,71,70,68,67,67,66,66,64,62,60,57,52,51,51,49,49,49,49,48,47,45,44,42,41,34,34,31]; 
departureCar = [77,81,73,73,69,72,69,70,70,71,69,65,64,55,72,57,54,53,54,63,51,51,56,48,44,45,39,47,44]; 
